NAME : XML100_1222_24
DIMENSION : 101
NB_CLUSTERS : 6
CLUSTERING_ALG : KMeans
CLUSTERING_PARAMS : k(5)
CLUSTERS
1 0
2 2 5 7 8 11 14 15 16 18 25 28 34 41 43 44 45 46 47 48 54 58 61 63 64 67 69 71 73 78 80 81 90 93 94 95 97 100
3 6 9 10 13 21 22 29 37 56 57 59 60 62 66 76 82 83 86 87 96
4 20 35 36 53 72 89
5 1 3 12 19 23 27 30 31 39 40 49 52 55 70 75 79 84 92 98 99
6 4 17 24 26 32 33 38 42 50 51 65 68 74 77 85 88 91
EOF